knapPI_6_1000_1000_460
n 1000
c 385813
z 385813
time 0.6
1,779,779,1
2,473,473,1
3,425,425,1
4,16,16,1
5,342,342,1
6,521,521,1
7,412,412,1
8,34,34,1
9,816,816,1
10,1000,1000,1
11,390,390,1
12,525,525,1
13,79,79,1
14,350,350,1
15,821,821,1
16,708,708,1
17,385,385,1
18,790,790,1
19,510,510,1
20,368,368,1
21,264,264,1
22,597,597,1
23,237,237,1
24,752,752,1
25,561,561,1
26,34,34,1
27,515,515,1
28,856,856,1
29,660,660,1
30,118,118,1
31,507,507,1
32,48,48,1
33,199,199,1
34,805,805,1
35,386,386,1
36,763,763,1
37,548,548,1
38,201,201,1
39,861,861,1
40,369,369,1
41,24,24,1
42,792,792,1
43,689,689,1
44,438,438,1
45,460,460,1
46,448,448,1
47,971,971,1
48,499,499,1
49,394,394,1
50,348,348,1
51,167,167,1
52,35,35,1
53,433,433,1
54,247,247,1
55,797,797,1
56,53,53,1
57,549,549,1
58,763,763,1
59,907,907,1
60,215,215,1
61,162,162,1
62,699,699,1
63,919,919,1
64,483,483,1
65,12,12,1
66,52,52,1
67,626,626,1
68,864,864,1
69,307,307,1
70,171,171,1
71,637,637,1
72,959,959,1
73,527,527,1
74,347,347,1
75,434,434,1
76,61,61,1
77,394,394,1
78,578,578,1
79,219,219,1
80,422,422,1
81,418,418,1
82,609,609,1
83,548,548,1
84,995,995,1
85,492,492,1
86,755,755,1
87,91,91,1
88,371,371,1
89,401,401,1
90,394,394,1
91,801,801,1
92,301,301,1
93,37,37,1
94,447,447,1
95,643,643,1
96,66,66,1
97,599,599,1
98,135,135,1
99,578,578,1
100,584,584,1
101,124,124,1
102,949,949,1
103,46,46,1
104,191,191,1
105,630,630,1
106,890,890,1
107,474,474,1
108,998,998,1
109,878,878,1
110,285,285,1
111,518,518,1
112,736,736,1
113,798,798,1
114,264,264,1
115,120,120,1
116,161,161,1
117,950,950,1
118,926,926,1
119,203,203,1
120,205,205,1
121,249,249,1
122,646,646,1
123,735,735,1
124,819,819,1
125,864,864,1
126,359,359,1
127,628,628,1
128,107,107,1
129,999,999,1
130,163,163,1
131,679,679,1
132,180,180,1
133,41,41,1
134,998,998,1
135,67,67,1
136,785,785,1
137,804,804,1
138,663,663,1
139,703,703,1
140,423,423,1
141,430,430,1
142,225,225,1
143,366,366,1
144,223,223,1
145,75,75,1
146,903,903,1
147,640,640,1
148,374,374,1
149,47,47,1
150,657,657,1
151,127,127,1
152,532,532,1
153,305,305,1
154,607,607,1
155,577,577,1
156,8,8,1
157,247,247,1
158,58,58,1
159,803,803,1
160,288,288,1
161,773,773,1
162,215,215,1
163,570,570,1
164,83,83,1
165,597,597,1
166,197,197,1
167,574,574,1
168,853,853,1
169,923,923,1
170,77,77,1
171,228,228,1
172,293,293,1
173,479,479,1
174,824,824,1
175,407,407,1
176,52,52,1
177,325,325,1
178,960,960,1
179,366,366,1
180,196,196,1
181,557,557,1
182,83,83,1
183,443,443,1
184,67,67,1
185,538,538,1
186,889,889,1
187,471,471,1
188,307,307,1
189,588,588,1
190,261,261,1
191,378,378,1
192,646,646,1
193,351,351,1
194,884,884,1
195,196,196,1
196,609,609,1
197,874,874,1
198,741,741,1
199,307,307,1
200,337,337,1
201,871,871,1
202,857,857,1
203,247,247,1
204,566,566,1
205,850,850,1
206,579,579,1
207,564,564,1
208,451,451,1
209,771,771,1
210,249,249,1
211,459,459,1
212,622,622,1
213,554,554,1
214,773,773,1
215,76,76,1
216,778,778,1
217,168,168,1
218,161,161,1
219,272,272,1
220,51,51,1
221,822,822,1
222,735,735,1
223,840,840,1
224,558,558,1
225,918,918,1
226,714,714,1
227,13,13,1
228,175,175,1
229,199,199,1
230,325,325,1
231,466,466,1
232,881,881,1
233,298,298,1
234,378,378,1
235,92,92,1
236,595,595,1
237,500,500,1
238,328,328,1
239,430,430,1
240,635,635,1
241,572,572,1
242,609,609,1
243,433,433,1
244,413,413,1
245,316,316,1
246,325,325,1
247,785,785,1
248,497,497,1
249,599,599,1
250,190,190,1
251,467,467,1
252,540,540,1
253,5,5,1
254,585,585,1
255,377,377,1
256,104,104,1
257,640,640,1
258,489,489,1
259,477,477,1
260,796,796,1
261,31,31,1
262,387,387,1
263,382,382,1
264,253,253,1
265,211,211,1
266,526,526,1
267,15,15,1
268,356,356,1
269,294,294,1
270,111,111,1
271,443,443,1
272,979,979,1
273,468,468,1
274,564,564,1
275,698,698,1
276,737,737,1
277,369,369,1
278,211,211,1
279,534,534,1
280,448,448,1
281,940,940,1
282,885,885,1
283,167,167,1
284,77,77,1
285,951,951,1
286,736,736,1
287,331,331,1
288,779,779,1
289,342,342,1
290,665,665,1
291,326,326,1
292,719,719,1
293,833,833,1
294,331,331,1
295,170,170,1
296,208,208,1
297,512,512,1
298,766,766,1
299,679,679,1
300,491,491,1
301,328,328,1
302,652,652,1
303,974,974,1
304,262,262,1
305,300,300,1
306,886,886,1
307,207,207,1
308,809,809,1
309,117,117,1
310,93,93,1
311,972,972,1
312,586,586,1
313,154,154,1
314,593,593,1
315,264,264,1
316,74,74,1
317,586,586,1
318,535,535,1
319,167,167,1
320,222,222,1
321,401,401,1
322,951,951,1
323,553,553,1
324,875,875,1
325,734,734,1
326,667,667,1
327,170,170,1
328,765,765,1
329,683,683,1
330,566,566,1
331,2,2,1
332,143,143,1
333,574,574,1
334,329,329,1
335,385,385,1
336,563,563,1
337,763,763,1
338,478,478,1
339,648,648,1
340,671,671,1
341,933,933,1
342,236,236,1
343,431,431,1
344,344,344,1
345,6,6,1
346,170,170,1
347,649,649,1
348,286,286,1
349,518,518,1
350,132,132,1
351,218,218,1
352,150,150,1
353,747,747,1
354,83,83,1
355,570,570,1
356,956,956,1
357,789,789,1
358,673,673,1
359,815,815,1
360,178,178,1
361,590,590,1
362,515,515,1
363,85,85,1
364,184,184,1
365,302,302,1
366,676,676,1
367,814,814,1
368,790,790,1
369,602,602,1
370,191,191,1
371,391,391,1
372,886,886,1
373,488,488,1
374,939,939,1
375,754,754,1
376,343,343,1
377,171,171,1
378,348,348,1
379,208,208,1
380,277,277,1
381,661,661,1
382,301,301,1
383,426,426,1
384,169,169,1
385,542,542,1
386,382,382,1
387,286,286,1
388,767,767,1
389,294,294,1
390,644,644,1
391,727,727,1
392,492,492,1
393,723,723,1
394,61,61,1
395,904,904,1
396,758,758,1
397,876,876,1
398,354,354,1
399,304,304,1
400,504,504,1
401,350,350,1
402,522,522,1
403,213,213,1
404,31,31,1
405,166,166,1
406,816,816,1
407,78,78,1
408,941,941,1
409,644,644,1
410,392,392,1
411,203,203,1
412,612,612,1
413,299,299,1
414,897,897,1
415,622,622,1
416,86,86,1
417,785,785,1
418,540,540,1
419,372,372,1
420,316,316,1
421,936,936,1
422,927,927,1
423,697,697,1
424,539,539,1
425,132,132,1
426,659,659,1
427,888,888,1
428,688,688,1
429,273,273,1
430,632,632,1
431,773,773,1
432,326,326,1
433,76,76,1
434,531,531,1
435,789,789,1
436,597,597,1
437,561,561,1
438,159,159,1
439,905,905,1
440,821,821,1
441,116,116,1
442,774,774,1
443,684,684,1
444,688,688,1
445,261,261,1
446,667,667,1
447,716,716,1
448,27,27,1
449,83,83,1
450,653,653,1
451,546,546,1
452,691,691,1
453,304,304,1
454,363,363,1
455,799,799,1
456,192,192,1
457,497,497,1
458,445,445,1
459,569,569,1
460,299,299,1
461,771,771,1
462,923,923,1
463,39,39,1
464,17,17,1
465,429,429,1
466,708,708,1
467,837,837,1
468,73,73,1
469,231,231,1
470,178,178,1
471,873,873,1
472,450,450,1
473,73,73,1
474,83,83,1
475,769,769,1
476,956,956,1
477,231,231,1
478,198,198,1
479,832,832,1
480,598,598,1
481,66,66,1
482,536,536,1
483,631,631,1
484,831,831,1
485,964,964,1
486,251,251,1
487,308,308,1
488,369,369,1
489,92,92,1
490,543,543,1
491,916,916,1
492,247,247,1
493,863,863,1
494,910,910,1
495,17,17,1
496,355,355,1
497,568,568,1
498,506,506,1
499,234,234,1
500,124,124,1
501,467,467,1
502,390,390,1
503,815,815,1
504,512,512,1
505,960,960,1
506,631,631,1
507,951,951,1
508,759,759,1
509,442,442,1
510,963,963,1
511,10,10,1
512,277,277,1
513,758,758,1
514,726,726,1
515,771,771,1
516,118,118,1
517,596,596,1
518,14,14,1
519,257,257,1
520,682,682,1
521,479,479,1
522,407,407,1
523,135,135,1
524,890,890,1
525,586,586,1
526,497,497,1
527,661,661,1
528,210,210,1
529,38,38,1
530,170,170,1
531,208,208,1
532,340,340,1
533,287,287,1
534,918,918,1
535,766,766,1
536,999,999,1
537,669,669,1
538,770,770,1
539,538,538,1
540,897,897,1
541,452,452,1
542,983,983,1
543,114,114,1
544,669,669,1
545,430,430,1
546,23,23,1
547,948,948,1
548,197,197,1
549,623,623,1
550,45,45,1
551,682,682,1
552,696,696,1
553,295,295,1
554,998,998,1
555,374,374,1
556,481,481,1
557,689,689,1
558,972,972,1
559,658,658,1
560,576,576,1
561,564,564,1
562,712,712,1
563,674,674,1
564,794,794,1
565,189,189,1
566,756,756,1
567,384,384,1
568,857,857,1
569,361,361,1
570,346,346,1
571,708,708,1
572,835,835,1
573,212,212,1
574,901,901,1
575,71,71,1
576,261,261,1
577,563,563,1
578,663,663,1
579,777,777,1
580,535,535,1
581,458,458,1
582,26,26,1
583,480,480,1
584,940,940,1
585,606,606,1
586,230,230,1
587,260,260,1
588,784,784,1
589,274,274,1
590,918,918,1
591,316,316,1
592,119,119,1
593,935,935,1
594,707,707,1
595,430,430,1
596,330,330,1
597,665,665,1
598,951,951,1
599,895,895,1
600,591,591,1
601,281,281,1
602,202,202,1
603,299,299,1
604,568,568,1
605,905,905,1
606,164,164,1
607,71,71,1
608,734,734,1
609,578,578,1
610,676,676,1
611,491,491,1
612,614,614,1
613,402,402,1
614,210,210,1
615,358,358,1
616,628,628,1
617,141,141,1
618,606,606,1
619,88,88,1
620,108,108,1
621,831,831,1
622,130,130,1
623,583,583,1
624,590,590,1
625,863,863,1
626,434,434,1
627,769,769,1
628,265,265,1
629,258,258,1
630,454,454,1
631,475,475,1
632,714,714,1
633,438,438,1
634,370,370,1
635,348,348,1
636,854,854,1
637,894,894,1
638,760,760,1
639,133,133,1
640,47,47,1
641,314,314,1
642,311,311,1
643,826,826,1
644,521,521,1
645,673,673,1
646,612,612,1
647,896,896,1
648,878,878,1
649,456,456,1
650,654,654,1
651,406,406,1
652,27,27,1
653,414,414,1
654,912,912,1
655,9,9,1
656,435,435,1
657,124,124,1
658,577,577,1
659,626,626,1
660,249,249,1
661,384,384,1
662,145,145,1
663,548,548,1
664,551,551,1
665,774,774,1
666,26,26,1
667,371,371,1
668,348,348,1
669,123,123,1
670,292,292,1
671,593,593,1
672,110,110,1
673,109,109,1
674,717,717,1
675,208,208,1
676,509,509,1
677,41,41,1
678,150,150,1
679,402,402,1
680,320,320,1
681,237,237,1
682,272,272,1
683,710,710,1
684,143,143,1
685,188,188,1
686,248,248,1
687,902,902,1
688,824,824,1
689,801,801,1
690,206,206,1
691,512,512,1
692,8,8,1
693,49,49,1
694,538,538,1
695,381,381,1
696,359,359,1
697,274,274,1
698,139,139,1
699,826,826,1
700,935,935,1
701,619,619,1
702,597,597,1
703,921,921,1
704,54,54,1
705,707,707,1
706,71,71,1
707,606,606,1
708,678,678,1
709,9,9,1
710,599,599,1
711,153,153,1
712,971,971,1
713,684,684,1
714,66,66,1
715,624,624,1
716,152,152,1
717,84,84,1
718,845,845,1
719,763,763,1
720,444,444,1
721,598,598,1
722,424,424,1
723,111,111,1
724,495,495,1
725,571,571,1
726,818,818,1
727,453,453,1
728,356,356,1
729,643,643,1
730,911,911,1
731,770,770,1
732,934,934,1
733,95,95,1
734,248,248,1
735,146,146,1
736,940,940,1
737,796,796,1
738,569,569,1
739,807,807,1
740,704,704,1
741,149,149,1
742,805,805,1
743,804,804,1
744,411,411,1
745,545,545,1
746,643,643,1
747,694,694,1
748,5,5,1
749,260,260,1
750,631,631,1
751,373,373,1
752,764,764,1
753,274,274,1
754,804,804,1
755,835,835,1
756,903,903,1
757,907,907,1
758,927,927,1
759,376,376,1
760,301,301,1
761,751,751,1
762,966,966,1
763,362,362,1
764,501,501,1
765,526,526,1
766,318,318,1
767,172,172,1
768,885,885,1
769,689,689,1
770,935,935,1
771,419,419,1
772,560,560,1
773,449,449,1
774,1,1,1
775,773,773,1
776,682,682,1
777,251,251,1
778,511,511,1
779,119,119,1
780,364,364,1
781,728,728,1
782,52,52,1
783,451,451,1
784,628,628,1
785,70,70,1
786,937,937,1
787,578,578,1
788,459,459,1
789,15,15,1
790,274,274,1
791,15,15,1
792,334,334,1
793,371,371,1
794,887,887,1
795,328,328,1
796,985,985,1
797,756,756,1
798,546,546,1
799,315,315,1
800,47,47,1
801,58,58,1
802,933,933,1
803,346,346,1
804,362,362,1
805,559,559,1
806,425,425,1
807,668,668,1
808,151,151,1
809,815,815,1
810,191,191,1
811,310,310,1
812,600,600,1
813,259,259,1
814,128,128,1
815,69,69,1
816,712,712,1
817,318,318,1
818,225,225,1
819,501,501,1
820,731,731,1
821,252,252,1
822,549,549,1
823,744,744,1
824,56,56,1
825,975,975,1
826,669,669,1
827,520,520,1
828,155,155,1
829,718,718,1
830,973,973,1
831,198,198,1
832,110,110,1
833,671,671,1
834,392,392,1
835,123,123,1
836,50,50,1
837,325,325,1
838,365,365,1
839,349,349,1
840,146,146,1
841,825,825,1
842,882,882,1
843,679,679,1
844,785,785,1
845,217,217,1
846,315,315,1
847,409,409,1
848,986,986,1
849,187,187,1
850,880,880,1
851,587,587,1
852,192,192,1
853,981,981,1
854,554,554,1
855,500,500,1
856,952,952,1
857,405,405,1
858,171,171,1
859,439,439,1
860,221,221,1
861,133,133,1
862,303,303,1
863,185,185,1
864,730,730,1
865,896,896,1
866,497,497,1
867,500,500,1
868,389,389,1
869,78,78,1
870,178,178,1
871,899,899,1
872,110,110,1
873,227,227,1
874,706,706,1
875,829,829,1
876,193,193,1
877,614,614,1
878,977,977,1
879,824,824,1
880,115,115,1
881,33,33,1
882,129,129,1
883,465,465,1
884,661,661,1
885,651,651,1
886,524,524,1
887,248,248,1
888,429,429,1
889,92,92,1
890,620,620,1
891,512,512,1
892,955,955,1
893,288,288,1
894,573,573,1
895,779,779,1
896,270,270,1
897,578,578,1
898,113,113,1
899,11,11,1
900,118,118,1
901,297,297,1
902,668,668,1
903,847,847,1
904,951,951,1
905,714,714,1
906,490,490,1
907,638,638,1
908,891,891,1
909,432,432,1
910,722,722,1
911,651,651,1
912,357,357,1
913,683,683,1
914,191,191,1
915,456,456,1
916,37,37,1
917,588,588,1
918,476,476,1
919,445,445,1
920,649,649,1
921,466,466,1
922,656,656,1
923,759,759,1
924,863,863,1
925,886,886,1
926,985,985,1
927,866,866,1
928,150,150,1
929,386,386,1
930,829,829,1
931,432,432,1
932,473,473,1
933,603,603,1
934,662,662,1
935,759,759,1
936,921,921,1
937,388,388,1
938,692,692,1
939,817,817,1
940,666,666,1
941,861,861,1
942,829,829,1
943,55,55,1
944,128,128,1
945,262,262,1
946,10,10,1
947,163,163,1
948,321,321,1
949,255,255,1
950,113,113,1
951,798,798,1
952,830,830,1
953,358,358,1
954,731,731,1
955,70,70,1
956,628,628,1
957,965,965,1
958,383,383,1
959,976,976,1
960,306,306,1
961,487,487,1
962,258,258,1
963,116,116,1
964,35,35,1
965,657,657,1
966,910,910,1
967,270,270,1
968,721,721,1
969,463,463,1
970,412,412,1
971,550,550,1
972,474,474,1
973,702,702,1
974,547,547,1
975,87,87,1
976,583,583,1
977,73,73,1
978,430,430,1
979,870,870,1
980,191,191,1
981,929,929,1
982,920,920,1
983,295,295,1
984,936,936,1
985,966,966,1
986,131,131,1
987,812,812,1
988,268,268,1
989,942,942,1
990,177,177,1
991,440,440,1
992,34,34,1
993,232,232,1
994,776,776,1
995,961,961,1
996,602,602,1
997,37,37,1
998,858,858,1
999,501,501,1
1000,621,621,1
